Route 1: 28 196 142 188 136 171 63 94 162 99 70 46 187 60 30 108 133 16 61 72 62 122 24 92 49 160 117 82 17 7 170 165 58 66 52 105
Route 2: 178 173 67 132 153 10 59 93 86 118 182 77 33 50 12 13 32 73 100 81 112 120 125 109 149 152 95 129 114 34 157 111 176 68
Route 3: 167 40 200 41 107 116 35 65 183 3 199 189 15 155 47 175 9 19 186 89 179 147 54 146 197 161 91 44 195 156 79 4 11 23
Route 4: 144 42 6 110 184 148 29 2 138 143 128 126 90 25 48 145 127 71 5 193 20 194 190 80 101 158 106 159 83 14 36 21 51
Route 5: 119 38 166 102 98 39 26 78 8 76 191 22 134 177 150 151 69 181 43 97 31 172 75 163 87 168 154 88 135 1
Route 6: 104 137 174 64 198 164 57 18 115 140 169 113 131 192 84 56 37 27 53 185 180 55 121 123 124 85
Route 7: 45 141 74 103 96 139 130
Vehicles: 7
Distance: 2503.56
